p cnf 26 127
-2 1 0
-4 3 0
-6 5 0
-8 7 0
-10 9 0
-12 11 0
-14 13 0
-16 15 0
-18 17 0
-20 19 0
-22 21 0
-24 23 0
-26 25 0
-1 -2 -3 0
-1 -2 -4 0
-1 -3 -4 0
-2 -3 -4 0
1 2 3 0
1 2 4 0
1 3 4 0
2 3 4 0
-1 -2 -5 -6 -7 -8 0
1 2 0
1 5 0
1 6 0
1 7 0
1 8 0
2 5 0
2 6 0
2 7 0
2 8 0
5 6 0
5 7 0
5 8 0
6 7 0
6 8 0
7 8 0
-5 -6 -9 0
-5 -6 -10 0
-5 -9 -10 0
-6 -9 -10 0
5 6 9 0
5 6 10 0
5 9 10 0
6 9 10 0
11 0
12 0
13 0
14 0
-11 -12 -15 0
-11 -12 -16 0
-11 -15 -16 0
-12 -15 -16 0
11 12 15 0
11 12 16 0
11 15 16 0
12 15 16 0
-15 -16 -17 0
-15 -16 -18 0
-15 -17 -18 0
-16 -17 -18 0
15 16 17 0
15 16 18 0
15 17 18 0
16 17 18 0
-9 -10 -17 -18 -19 0
-9 -10 -17 -18 -20 0
-9 -10 -17 -19 -20 0
-9 -10 -18 -19 -20 0
-9 -17 -18 -19 -20 0
-10 -17 -18 -19 -20 0
9 10 17 0
9 10 18 0
9 10 19 0
9 10 20 0
9 17 18 0
9 17 19 0
9 17 20 0
9 18 19 0
9 18 20 0
9 19 20 0
10 17 18 0
10 17 19 0
10 17 20 0
10 18 19 0
10 18 20 0
10 19 20 0
17 18 19 0
17 18 20 0
17 19 20 0
18 19 20 0
-3 -4 0
-3 -21 0
-3 -22 0
-4 -21 0
-4 -22 0
-21 -22 0
3 4 21 22 0
-7 -8 -21 -22 -23 -24 0
7 8 0
7 21 0
7 22 0
7 23 0
7 24 0
8 21 0
8 22 0
8 23 0
8 24 0
21 22 0
21 23 0
21 24 0
22 23 0
22 24 0
23 24 0
23 0
24 0
13 0
14 0
25 0
26 0
-19 -20 -25 -26 0
19 20 0
19 25 0
19 26 0
20 25 0
20 26 0
25 26 0
